p cnf 88 300
-3 1 0
-3 2 0
-1 -2 3 0
-4 1 0
-4 3 0
-1 -3 4 0
-7 -5 0
-7 -6 0
5 6 7 0
8 7 0
8 -3 0
-7 3 -8 0
9 -4 0
9 -8 0
4 8 -9 0
-10 5 -11 0
10 -5 -11 0
-10 -5 11 0
10 5 11 0
-15 -13 0
-15 14 0
13 -14 15 0
-17 15 0
-17 -16 0
-15 16 17 0
-18 17 0
-18 13 0
-17 -13 18 0
-12 -18 -19 0
12 18 -19 0
-12 18 19 0
12 -18 19 0
20 12 0
20 10 0
-12 -10 -20 0
-21 20 0
-21 10 0
-20 -10 21 0
22 2 0
22 -6 0
-2 6 -22 0
-23 21 0
-23 22 0
-21 -22 23 0
-24 -23 0
-24 -17 0
23 17 24 0
-25 13 0
-25 -24 0
-13 24 25 0
-26 -6 0
-26 25 0
6 -25 26 0
10 -27 -28 0
-10 27 -28 0
10 27 28 0
-10 -27 28 0
-29 28 0
-29 -25 0
-28 25 29 0
26 29 -30 0
-26 -29 -30 0
26 -29 30 0
-26 29 30 0
31 19 0
31 -30 0
-19 30 -31 0
11 31 -32 0
-11 -31 -32 0
11 -31 32 0
-11 31 32 0
-33 10 0
-33 5 0
-10 -5 33 0
-7 -33 -34 0
7 33 -34 0
-7 33 34 0
7 -33 34 0
35 15 0
35 34 0
-15 -34 -35 0
36 32 0
36 35 0
-32 -35 -36 0
37 -3 0
37 -10 0
3 10 -37 0
-39 38 0
-39 -5 0
-38 5 39 0
-40 33 0
-40 -39 0
-33 39 40 0
-1 -28 -41 0
1 28 -41 0
-1 28 41 0
1 -28 41 0
40 -41 -42 0
-40 41 -42 0
40 41 42 0
-40 -41 42 0
43 -37 0
43 -42 0
37 42 -43 0
44 4 0
44 14 0
-4 -14 -44 0
-46 25 0
-46 45 0
-25 -45 46 0
47 44 0
47 46 0
-44 -46 -47 0
-48 43 0
-48 -47 0
-43 47 48 0
39 17 -49 0
-39 -17 -49 0
39 -17 49 0
-39 17 49 0
50 -49 0
50 -14 0
49 14 -50 0
51 -21 0
51 -50 0
21 50 -51 0
-48 -51 -52 0
48 51 -52 0
-48 51 52 0
48 -51 52 0
27 45 -53 0
-27 -45 -53 0
27 -45 53 0
-27 45 53 0
53 2 -54 0
-53 -2 -54 0
53 -2 54 0
-53 2 54 0
-55 -52 0
-55 -54 0
52 54 55 0
-56 22 0
-56 25 0
-22 -25 56 0
-57 56 0
-57 -12 0
-56 12 57 0
58 -38 0
58 7 0
38 -7 -58 0
59 -27 0
59 58 0
27 -58 -59 0
-57 -59 -60 0
57 59 -60 0
-57 59 60 0
57 -59 60 0
-61 55 0
-61 60 0
-55 -60 61 0
36 -61 -62 0
-36 61 -62 0
36 61 62 0
-36 -61 62 0
63 -27 0
63 3 0
27 -3 -63 0
21 -24 -64 0
-21 24 -64 0
21 24 64 0
-21 -24 64 0
63 64 -65 0
-63 -64 -65 0
63 -64 65 0
-63 64 65 0
-28 53 -66 0
28 -53 -66 0
-28 -53 66 0
28 53 66 0
-67 49 0
-67 -40 0
-49 40 67 0
3 5 -68 0
-3 -5 -68 0
3 -5 68 0
-3 5 68 0
68 3 -69 0
-68 -3 -69 0
68 -3 69 0
-68 3 69 0
-70 -67 0
-70 -69 0
67 69 70 0
-71 -66 0
-71 70 0
66 -70 71 0
72 65 0
72 71 0
-65 -71 -72 0
62 -72 -73 0
-62 72 -73 0
62 72 73 0
-62 -72 73 0
-75 74 0
-75 -10 0
-74 10 75 0
76 -75 0
76 -58 0
75 58 -76 0
77 -76 0
77 41 0
76 -41 -77 0
7 -50 -78 0
-7 50 -78 0
7 50 78 0
-7 -50 78 0
-77 78 -79 0
77 -78 -79 0
-77 -78 79 0
77 78 79 0
80 6 0
80 7 0
-6 -7 -80 0
-80 -81 -82 0
80 81 -82 0
-80 81 82 0
80 -81 82 0
-83 79 0
-83 82 0
-79 -82 83 0
-84 5 0
-84 13 0
-5 -13 84 0
-10 -84 -85 0
10 84 -85 0
-10 84 85 0
10 -84 85 0
-83 -85 -86 0
83 85 -86 0
-83 85 86 0
83 -85 86 0
73 86 -87 0
-73 -86 -87 0
73 -86 87 0
-73 86 87 0
-9 -87 -88 0
9 87 -88 0
-9 87 88 0
9 -87 88 0
32 52 8 -86 0
59 -21 -42 7 78 0
-76 -73 68 -41 0
-44 20 -13 0
-15 87 20 0
-10 -81 -44 0
-43 76 0
-21 59 68 53 -60 0
-64 81 -29 0
-63 -61 -15 -74 27 -16 0
40 -27 -1 -28 -9 0
80 -47 0
2 46 22 0
-13 -55 0
-45 21 9 75 -38 0
-37 -68 66 0
41 -10 69 0
-87 69 48 34 -5 0
-30 -64 45 -15 0
18 85 0
26 2 59 0
-7 -77 0
-87 -55 19 76 0
-57 23 0
-72 -53 50 0
-24 -60 -21 0
-36 -44 -66 56 83 26 0
-38 -47 -20 44 -79 -67 0
-35 77 -85 -79 14 0
-50 54 55 1 -7 0
69 -27 15 -25 0
51 -82 -80 0
-20 40 0
-13 -46 77 0
-65 -9 -35 0
-57 8 30 -47 0
66 -56 55 0
15 11 0
-80 -62 -66 0
-75 51 2 -87 0
-79 70 30 -24 0
88 -76 0
65 -86 76 9 -37 -36 0
-64 34 -51 -35 0
22 -34 7 82 0
15 -12 -14 65 35 0
60 76 80 -46 0
70 62 -11 77 -55 0
-6 -60 0
25 78 -22 -30 82 0
88 0
